(set-logic QF_LIA)
(set-info :ran/ran2.smt2)
(set-info :smt-lib-version 2.0)
(declare-fun x1 () Int)
(declare-fun x2 () Int)
(declare-fun x3 () Int)
(declare-fun x4 () Int)
(declare-fun x5 () Int)
(declare-fun x6 () Int)
(assert (<= (+ (* 6 x1) (* 6 x2) (* (- 2) x3) (* 6 x4) (* 9 x5) (* 7 x6) ) (- 1202)))
(assert (<= (+ (* 10 x1) (* 0 x2) (* 3 x3) (* 0 x4) (* (- 3) x5) (* (- 1) x6) ) (- 124)))
(assert (<= (+ (* (- 2) x1) (* (- 6) x2) (* 5 x3) (* 7 x4) (* (- 6) x5) (* (- 2) x6) ) 908))
(assert (<= (+ (* (- 1) x1) (* 8 x2) (* 8 x3) (* (- 6) x4) (* (- 10) x5) (* 10 x6) ) (- 721)))
(assert (<= (+ (* 10 x1) (* (- 5) x2) (* 10 x3) (* 6 x4) (* 10 x5) (* (- 3) x6) ) (- 1112)))
(assert (<= (+ (* 8 x1) (* (- 9) x2) (* (- 10) x3) (* 7 x4) (* 2 x5) (* 1 x6) ) (- 386)))
(assert (<= (+ (* 9 x1) (* 10 x2) (* 9 x3) (* (- 3) x4) (* (- 6) x5) (* 2 x6) ) 1016))
(assert (<= (+ (* (- 4) x1) (* 10 x2) (* (- 1) x3) (* 5 x4) (* 8 x5) (* (- 3) x6) ) 1274))
(assert (<= (+ (* 8 x1) (* (- 6) x2) (* 4 x3) (* 6 x4) (* (- 1) x5) (* 1 x6) ) (- 1134)))
(assert (<= (+ (* (- 4) x1) (* 6 x2) (* 10 x3) (* (- 7) x4) (* 8 x5) (* 10 x6) ) 643))
(assert (<= (+ (* (- 1) x1) (* (- 2) x2) (* (- 9) x3) (* (- 5) x4) (* (- 5) x5) (* 9 x6) ) 291))
(assert (<= (+ (* (- 3) x1) (* 0 x2) (* 0 x3) (* 4 x4) (* (- 1) x5) (* 7 x6) ) 588))
(assert (<= (+ (* 1 x1) (* 0 x2) (* 0 x3) (* 0 x4) (* 0 x5) (* 0 x6) ) 1584))
(assert (<= (+ (* (- 1) x1) (* 0 x2) (* 0 x3) (* 0 x4) (* 0 x5) (* 0 x6) ) 1584))
(assert (<= (+ (* 0 x1) (* 1 x2) (* 0 x3) (* 0 x4) (* 0 x5) (* 0 x6) ) 1584))
(assert (<= (+ (* 0 x1) (* (- 1) x2) (* 0 x3) (* 0 x4) (* 0 x5) (* 0 x6) ) 1584))
(assert (<= (+ (* 0 x1) (* 0 x2) (* 1 x3) (* 0 x4) (* 0 x5) (* 0 x6) ) 1584))
(assert (<= (+ (* 0 x1) (* 0 x2) (* (- 1) x3) (* 0 x4) (* 0 x5) (* 0 x6) ) 1584))
(assert (<= (+ (* 0 x1) (* 0 x2) (* 0 x3) (* 1 x4) (* 0 x5) (* 0 x6) ) 1584))
(assert (<= (+ (* 0 x1) (* 0 x2) (* 0 x3) (* (- 1) x4) (* 0 x5) (* 0 x6) ) 1584))
(assert (<= (+ (* 0 x1) (* 0 x2) (* 0 x3) (* 0 x4) (* 1 x5) (* 0 x6) ) 1584))
(assert (<= (+ (* 0 x1) (* 0 x2) (* 0 x3) (* 0 x4) (* (- 1) x5) (* 0 x6) ) 1584))
(assert (<= (+ (* 0 x1) (* 0 x2) (* 0 x3) (* 0 x4) (* 0 x5) (* 1 x6) ) 1584))
(assert (<= (+ (* 0 x1) (* 0 x2) (* 0 x3) (* 0 x4) (* 0 x5) (* (- 1) x6) ) 1584))
